Total weight: 948.5549221655779
Route 1: 0 52 18 89 6 95 97 92 7 88 69 28 76 79 81 9 20 51 30 70 1 50 77 29 24 4 55 25 39 72 74 73 21 40 58 53 0 
Route 2: 0 2 57 43 41 22 75 56 67 23 15 38 44 99 87 42 14 100 93 19 63 90 32 0 
Route 3: 0 27 31 10 62 11 64 49 36 47 48 82 8 46 45 83 60 5 84 17 86 16 61 85 91 98 37 59 96 94 13 26 12 54 80 68 3 33 78 34 35 71 65 66 0 
